Route #1: 1 3 17 13 26 14 11 24 19 1 
Route #2: 1 1 5 21 30 8 12 28 1 
Route #3: 1 6 9 16 29 22 7 2 1 
Route #4: 1 15 10 4 18 25 23 1 
Route #5: 1 20 27 1 

Cost 756.909
Time 0.1612


 * Another infos *

 Iterations: 31 Time: 0.1612 sec - 0.0027 min - 0.0000 horas
0.0000 h 0.0027 min
Problem dimension: 31
